c description: Perfect Matching Principle on 
c generator: CNFgen (0.9.0)
c copyright: (C) 2012-2020 Massimo Lauria <massimo.lauria@uniroma1.it>
c url: https://massimolauria.net/cnfgen
c
p cnf 80 623
-1 -2 0
-1 -3 0
-1 -4 0
-1 -5 0
-1 -6 0
-1 -7 0
-1 -8 0
-1 -9 0
-2 -3 0
-2 -4 0
-2 -5 0
-2 -6 0
-2 -7 0
-2 -8 0
-2 -9 0
-3 -4 0
-3 -5 0
-3 -6 0
-3 -7 0
-3 -8 0
-3 -9 0
-4 -5 0
-4 -6 0
-4 -7 0
-4 -8 0
-4 -9 0
-5 -6 0
-5 -7 0
-5 -8 0
-5 -9 0
-6 -7 0
-6 -8 0
-6 -9 0
-7 -8 0
-7 -9 0
-8 -9 0
1 2 3 4 5 6 7 8 9 0
-1 -10 0
-1 -11 0
-1 -12 0
-1 -13 0
-1 -14 0
-1 -15 0
-1 -16 0
-10 -11 0
-10 -12 0
-10 -13 0
-10 -14 0
-10 -15 0
-10 -16 0
-11 -12 0
-11 -13 0
-11 -14 0
-11 -15 0
-11 -16 0
-12 -13 0
-12 -14 0
-12 -15 0
-12 -16 0
-13 -14 0
-13 -15 0
-13 -16 0
-14 -15 0
-14 -16 0
-15 -16 0
1 10 11 12 13 14 15 16 0
-2 -17 0
-2 -18 0
-2 -19 0
-2 -20 0
-2 -21 0
-2 -22 0
-2 -23 0
-2 -24 0
-2 -25 0
-2 -26 0
-17 -18 0
-17 -19 0
-17 -20 0
-17 -21 0
-17 -22 0
-17 -23 0
-17 -24 0
-17 -25 0
-17 -26 0
-18 -19 0
-18 -20 0
-18 -21 0
-18 -22 0
-18 -23 0
-18 -24 0
-18 -25 0
-18 -26 0
-19 -20 0
-19 -21 0
-19 -22 0
-19 -23 0
-19 -24 0
-19 -25 0
-19 -26 0
-20 -21 0
-20 -22 0
-20 -23 0
-20 -24 0
-20 -25 0
-20 -26 0
-21 -22 0
-21 -23 0
-21 -24 0
-21 -25 0
-21 -26 0
-22 -23 0
-22 -24 0
-22 -25 0
-22 -26 0
-23 -24 0
-23 -25 0
-23 -26 0
-24 -25 0
-24 -26 0
-25 -26 0
2 17 18 19 20 21 22 23 24 25 26 0
-17 -27 0
-17 -28 0
-17 -29 0
-17 -30 0
-17 -31 0
-27 -28 0
-27 -29 0
-27 -30 0
-27 -31 0
-28 -29 0
-28 -30 0
-28 -31 0
-29 -30 0
-29 -31 0
-30 -31 0
17 27 28 29 30 31 0
-18 -32 0
-18 -33 0
-18 -34 0
-18 -35 0
-32 -33 0
-32 -34 0
-32 -35 0
-33 -34 0
-33 -35 0
-34 -35 0
18 32 33 34 35 0
-10 -36 0
-10 -37 0
-10 -38 0
-10 -39 0
-10 -40 0
-10 -41 0
-36 -37 0
-36 -38 0
-36 -39 0
-36 -40 0
-36 -41 0
-37 -38 0
-37 -39 0
-37 -40 0
-37 -41 0
-38 -39 0
-38 -40 0
-38 -41 0
-39 -40 0
-39 -41 0
-40 -41 0
10 36 37 38 39 40 41 0
-11 -19 0
-11 -32 0
-11 -36 0
-11 -42 0
-11 -43 0
-11 -44 0
-11 -45 0
-11 -46 0
-19 -32 0
-19 -36 0
-19 -42 0
-19 -43 0
-19 -44 0
-19 -45 0
-19 -46 0
-32 -36 0
-32 -42 0
-32 -43 0
-32 -44 0
-32 -45 0
-32 -46 0
-36 -42 0
-36 -43 0
-36 -44 0
-36 -45 0
-36 -46 0
-42 -43 0
-42 -44 0
-42 -45 0
-42 -46 0
-43 -44 0
-43 -45 0
-43 -46 0
-44 -45 0
-44 -46 0
-45 -46 0
11 19 32 36 42 43 44 45 46 0
-20 -27 0
-20 -47 0
-20 -48 0
-20 -49 0
-27 -47 0
-27 -48 0
-27 -49 0
-47 -48 0
-47 -49 0
-48 -49 0
20 27 47 48 49 0
-3 -12 0
-3 -21 0
-3 -33 0
-3 -37 0
-3 -42 0
-3 -50 0
-3 -51 0
-3 -52 0
-12 -21 0
-12 -33 0
-12 -37 0
-12 -42 0
-12 -50 0
-12 -51 0
-12 -52 0
-21 -33 0
-21 -37 0
-21 -42 0
-21 -50 0
-21 -51 0
-21 -52 0
-33 -37 0
-33 -42 0
-33 -50 0
-33 -51 0
-33 -52 0
-37 -42 0
-37 -50 0
-37 -51 0
-37 -52 0
-42 -50 0
-42 -51 0
-42 -52 0
-50 -51 0
-50 -52 0
-51 -52 0
3 12 21 33 37 42 50 51 52 0
-4 -22 0
-4 -28 0
-4 -47 0
-4 -53 0
-4 -54 0
-4 -55 0
-4 -56 0
-22 -28 0
-22 -47 0
-22 -53 0
-22 -54 0
-22 -55 0
-22 -56 0
-28 -47 0
-28 -53 0
-28 -54 0
-28 -55 0
-28 -56 0
-47 -53 0
-47 -54 0
-47 -55 0
-47 -56 0
-53 -54 0
-53 -55 0
-53 -56 0
-54 -55 0
-54 -56 0
-55 -56 0
4 22 28 47 53 54 55 56 0
-5 -34 0
-5 -48 0
-5 -57 0
-5 -58 0
-5 -59 0
-34 -48 0
-34 -57 0
-34 -58 0
-34 -59 0
-48 -57 0
-48 -58 0
-48 -59 0
-57 -58 0
-57 -59 0
-58 -59 0
5 34 48 57 58 59 0
-6 -13 0
-6 -29 0
-6 -38 0
-6 -50 0
-6 -53 0
-6 -60 0
-6 -61 0
-6 -62 0
-6 -63 0
-6 -64 0
-13 -29 0
-13 -38 0
-13 -50 0
-13 -53 0
-13 -60 0
-13 -61 0
-13 -62 0
-13 -63 0
-13 -64 0
-29 -38 0
-29 -50 0
-29 -53 0
-29 -60 0
-29 -61 0
-29 -62 0
-29 -63 0
-29 -64 0
-38 -50 0
-38 -53 0
-38 -60 0
-38 -61 0
-38 -62 0
-38 -63 0
-38 -64 0
-50 -53 0
-50 -60 0
-50 -61 0
-50 -62 0
-50 -63 0
-50 -64 0
-53 -60 0
-53 -61 0
-53 -62 0
-53 -63 0
-53 -64 0
-60 -61 0
-60 -62 0
-60 -63 0
-60 -64 0
-61 -62 0
-61 -63 0
-61 -64 0
-62 -63 0
-62 -64 0
-63 -64 0
6 13 29 38 50 53 60 61 62 63 64 0
-23 -39 0
-23 -65 0
-23 -66 0
-23 -67 0
-39 -65 0
-39 -66 0
-39 -67 0
-65 -66 0
-65 -67 0
-66 -67 0
23 39 65 66 67 0
-7 -24 0
-7 -40 0
-7 -60 0
-7 -68 0
-7 -69 0
-7 -70 0
-7 -71 0
-24 -40 0
-24 -60 0
-24 -68 0
-24 -69 0
-24 -70 0
-24 -71 0
-40 -60 0
-40 -68 0
-40 -69 0
-40 -70 0
-40 -71 0
-60 -68 0
-60 -69 0
-60 -70 0
-60 -71 0
-68 -69 0
-68 -70 0
-68 -71 0
-69 -70 0
-69 -71 0
-70 -71 0
7 24 40 60 68 69 70 71 0
-25 -30 0
-25 -43 0
-25 -51 0
-25 -54 0
-25 -57 0
-25 -61 0
-25 -65 0
-25 -68 0
-25 -72 0
-25 -73 0
-25 -74 0
-30 -43 0
-30 -51 0
-30 -54 0
-30 -57 0
-30 -61 0
-30 -65 0
-30 -68 0
-30 -72 0
-30 -73 0
-30 -74 0
-43 -51 0
-43 -54 0
-43 -57 0
-43 -61 0
-43 -65 0
-43 -68 0
-43 -72 0
-43 -73 0
-43 -74 0
-51 -54 0
-51 -57 0
-51 -61 0
-51 -65 0
-51 -68 0
-51 -72 0
-51 -73 0
-51 -74 0
-54 -57 0
-54 -61 0
-54 -65 0
-54 -68 0
-54 -72 0
-54 -73 0
-54 -74 0
-57 -61 0
-57 -65 0
-57 -68 0
-57 -72 0
-57 -73 0
-57 -74 0
-61 -65 0
-61 -68 0
-61 -72 0
-61 -73 0
-61 -74 0
-65 -68 0
-65 -72 0
-65 -73 0
-65 -74 0
-68 -72 0
-68 -73 0
-68 -74 0
-72 -73 0
-72 -74 0
-73 -74 0
25 30 43 51 54 57 61 65 68 72 73 74 0
-14 -44 0
-14 -62 0
-14 -69 0
-14 -72 0
-14 -75 0
-14 -76 0
-14 -77 0
-44 -62 0
-44 -69 0
-44 -72 0
-44 -75 0
-44 -76 0
-44 -77 0
-62 -69 0
-62 -72 0
-62 -75 0
-62 -76 0
-62 -77 0
-69 -72 0
-69 -75 0
-69 -76 0
-69 -77 0
-72 -75 0
-72 -76 0
-72 -77 0
-75 -76 0
-75 -77 0
-76 -77 0
14 44 62 69 72 75 76 77 0
-15 -49 0
-15 -52 0
-15 -58 0
-15 -70 0
-15 -73 0
-15 -75 0
-15 -78 0
-49 -52 0
-49 -58 0
-49 -70 0
-49 -73 0
-49 -75 0
-49 -78 0
-52 -58 0
-52 -70 0
-52 -73 0
-52 -75 0
-52 -78 0
-58 -70 0
-58 -73 0
-58 -75 0
-58 -78 0
-70 -73 0
-70 -75 0
-70 -78 0
-73 -75 0
-73 -78 0
-75 -78 0
15 49 52 58 70 73 75 78 0
-55 -66 0
-55 -71 0
-55 -74 0
-55 -76 0
-55 -79 0
-66 -71 0
-66 -74 0
-66 -76 0
-66 -79 0
-71 -74 0
-71 -76 0
-71 -79 0
-74 -76 0
-74 -79 0
-76 -79 0
55 66 71 74 76 79 0
-8 -26 0
-8 -31 0
-8 -45 0
-8 -56 0
-8 -63 0
-8 -67 0
-8 -77 0
-8 -78 0
-8 -79 0
-8 -80 0
-26 -31 0
-26 -45 0
-26 -56 0
-26 -63 0
-26 -67 0
-26 -77 0
-26 -78 0
-26 -79 0
-26 -80 0
-31 -45 0
-31 -56 0
-31 -63 0
-31 -67 0
-31 -77 0
-31 -78 0
-31 -79 0
-31 -80 0
-45 -56 0
-45 -63 0
-45 -67 0
-45 -77 0
-45 -78 0
-45 -79 0
-45 -80 0
-56 -63 0
-56 -67 0
-56 -77 0
-56 -78 0
-56 -79 0
-56 -80 0
-63 -67 0
-63 -77 0
-63 -78 0
-63 -79 0
-63 -80 0
-67 -77 0
-67 -78 0
-67 -79 0
-67 -80 0
-77 -78 0
-77 -79 0
-77 -80 0
-78 -79 0
-78 -80 0
-79 -80 0
8 26 31 45 56 63 67 77 78 79 80 0
-9 -16 0
-9 -35 0
-9 -41 0
-9 -46 0
-9 -59 0
-9 -64 0
-9 -80 0
-16 -35 0
-16 -41 0
-16 -46 0
-16 -59 0
-16 -64 0
-16 -80 0
-35 -41 0
-35 -46 0
-35 -59 0
-35 -64 0
-35 -80 0
-41 -46 0
-41 -59 0
-41 -64 0
-41 -80 0
-46 -59 0
-46 -64 0
-46 -80 0
-59 -64 0
-59 -80 0
-64 -80 0
9 16 35 41 46 59 64 80 0